32 53
1 3
2 1 4
3 2
4 1
5 28
6 21 7 10 11 5 20
7 16 24 19 8
9 32 13 23
10 17 15 3 9 14
11 28 24 5 22 18 15
12 25
13 12 25
14 17
15 26 14 17 2
16 29
19 8
21 20
22 21
23 32
24 8 19
25 26
26 12 13 27
27 23
28 18
30 29
31 30
